32      4       
16      9       10      21      
0       0       0       0       0       3       2       3       4       
4       0       0       0       5       3       6       13      24      
4       0       0       4       0       3       5       7       12      
1       0       0       0       4       1       9       
2       9       0       0       0       3       8       15      25      
4       0       0       0       7       2       10      26      
1       0       0       0       2       2       11      24      
7       0       0       0       4       1       18      
9       9       0       0       0       1       14      
6       8       0       0       0       1       20      
2       0       7       0       0       1       15      
3       4       0       0       0       2       28      31      
9       0       0       0       9       2       16      17      
3       0       1       0       0       1       23      
4       0       0       0       7       2       17      28      
5       0       6       0       0       3       18      25      29      
5       0       0       8       0       1       30      
7       5       0       0       0       3       19      21      28      
9       4       0       0       0       1       26      
2       0       0       4       0       1       22      
10      6       0       0       0       1       30      
3       3       0       0       0       1       23      
2       0       8       0       0       1       27      
7       0       0       0       5       1       26      
10      2       0       0       0       1       27      
8       0       9       0       0       1       27      
3       0       0       5       0       1       31      
9       0       0       2       0       1       30      
4       3       0       0       0       1       32      
1       0       0       0       2       1       32      
2       0       0       0       3       1       32      
0       0       0       0       0       0       